; benchmark generated from python API
(set-info :status unknown)
(declare-fun x_months () (_ BitVec 32))
(declare-fun x_beta () (_ BitVec 32))
(declare-fun y_months () (_ BitVec 32))
(declare-fun y_beta () (_ BitVec 32))
(assert
 (bvsle (_ bv4294966096 32) x_months))
(assert
 (bvsge (_ bv1199 32) x_months))
(assert
 (let ((?x83275 (bvsmod x_months (_ bv48 32))))
 (let ((?x13 ((as const (Array (_ BitVec 32) (_ BitVec 32))) (_ bv0 32))))
 (let ((?x15 (store ?x13 (_ bv0 32) (_ bv31 32))))
 (let ((?x18 (store ?x15 (_ bv1 32) (_ bv30 32))))
 (let ((?x20 (store ?x18 (_ bv2 32) (_ bv31 32))))
 (let ((?x22 (store ?x20 (_ bv3 32) (_ bv30 32))))
 (let ((?x24 (store ?x22 (_ bv4 32) (_ bv31 32))))
 (let ((?x26 (store ?x24 (_ bv5 32) (_ bv31 32))))
 (let ((?x28 (store ?x26 (_ bv6 32) (_ bv30 32))))
 (let ((?x30 (store ?x28 (_ bv7 32) (_ bv31 32))))
 (let ((?x32 (store ?x30 (_ bv8 32) (_ bv30 32))))
 (let ((?x34 (store ?x32 (_ bv9 32) (_ bv31 32))))
 (let ((?x36 (store ?x34 (_ bv10 32) (_ bv31 32))))
 (let ((?x39 (store ?x36 (_ bv11 32) (_ bv28 32))))
 (let ((?x41 (store ?x39 (_ bv12 32) (_ bv31 32))))
 (let ((?x43 (store ?x41 (_ bv13 32) (_ bv30 32))))
 (let ((?x45 (store ?x43 (_ bv14 32) (_ bv31 32))))
 (let ((?x47 (store ?x45 (_ bv15 32) (_ bv30 32))))
 (let ((?x49 (store ?x47 (_ bv16 32) (_ bv31 32))))
 (let ((?x51 (store ?x49 (_ bv17 32) (_ bv31 32))))
 (let ((?x53 (store ?x51 (_ bv18 32) (_ bv30 32))))
 (let ((?x55 (store ?x53 (_ bv19 32) (_ bv31 32))))
 (let ((?x57 (store ?x55 (_ bv20 32) (_ bv30 32))))
 (let ((?x59 (store ?x57 (_ bv21 32) (_ bv31 32))))
 (let ((?x61 (store ?x59 (_ bv22 32) (_ bv31 32))))
 (let ((?x63 (store ?x61 (_ bv23 32) (_ bv28 32))))
 (let ((?x65 (store ?x63 (_ bv24 32) (_ bv31 32))))
 (let ((?x67 (store ?x65 (_ bv25 32) (_ bv30 32))))
 (let ((?x69 (store ?x67 (_ bv26 32) (_ bv31 32))))
 (let ((?x71 (store ?x69 (_ bv27 32) (_ bv30 32))))
 (let ((?x72 (store ?x71 (_ bv28 32) (_ bv31 32))))
 (let ((?x74 (store ?x72 (_ bv29 32) (_ bv31 32))))
 (let ((?x75 (store ?x74 (_ bv30 32) (_ bv30 32))))
 (let ((?x76 (store ?x75 (_ bv31 32) (_ bv31 32))))
 (let ((?x78 (store ?x76 (_ bv32 32) (_ bv30 32))))
 (let ((?x80 (store ?x78 (_ bv33 32) (_ bv31 32))))
 (let ((?x82 (store ?x80 (_ bv34 32) (_ bv31 32))))
 (let ((?x84 (store ?x82 (_ bv35 32) (_ bv28 32))))
 (let ((?x86 (store ?x84 (_ bv36 32) (_ bv31 32))))
 (let ((?x88 (store ?x86 (_ bv37 32) (_ bv30 32))))
 (let ((?x90 (store ?x88 (_ bv38 32) (_ bv31 32))))
 (let ((?x92 (store ?x90 (_ bv39 32) (_ bv30 32))))
 (let ((?x94 (store ?x92 (_ bv40 32) (_ bv31 32))))
 (let ((?x96 (store ?x94 (_ bv41 32) (_ bv31 32))))
 (let ((?x98 (store ?x96 (_ bv42 32) (_ bv30 32))))
 (let ((?x100 (store ?x98 (_ bv43 32) (_ bv31 32))))
 (let ((?x102 (store ?x100 (_ bv44 32) (_ bv30 32))))
 (let ((?x104 (store ?x102 (_ bv45 32) (_ bv31 32))))
 (let ((?x106 (store ?x104 (_ bv46 32) (_ bv31 32))))
 (let ((?x108 (store ?x106 (_ bv47 32) (_ bv29 32))))
 (let (($x84078 (or (= (_ bv22802 32) (bvadd x_months (_ bv24003 32))) (= (_ bv25202 32) (bvadd x_months (_ bv24003 32))))))
 (let ((?x93134 (ite $x84078 (_ bv28 32) (select ?x108 ?x83275))))
 (let (($x61858 (bvsle (_ bv0 32) x_beta)))
 (and $x61858 (bvslt x_beta ?x93134))))))))))))))))))))))))))))))))))))))))))))))))))))))))
(assert
 (bvsle (_ bv4294966096 32) y_months))
(assert
 (bvsge (_ bv1199 32) y_months))
(assert
 (let ((?x16110 (bvsmod y_months (_ bv48 32))))
 (let ((?x13 ((as const (Array (_ BitVec 32) (_ BitVec 32))) (_ bv0 32))))
 (let ((?x15 (store ?x13 (_ bv0 32) (_ bv31 32))))
 (let ((?x18 (store ?x15 (_ bv1 32) (_ bv30 32))))
 (let ((?x20 (store ?x18 (_ bv2 32) (_ bv31 32))))
 (let ((?x22 (store ?x20 (_ bv3 32) (_ bv30 32))))
 (let ((?x24 (store ?x22 (_ bv4 32) (_ bv31 32))))
 (let ((?x26 (store ?x24 (_ bv5 32) (_ bv31 32))))
 (let ((?x28 (store ?x26 (_ bv6 32) (_ bv30 32))))
 (let ((?x30 (store ?x28 (_ bv7 32) (_ bv31 32))))
 (let ((?x32 (store ?x30 (_ bv8 32) (_ bv30 32))))
 (let ((?x34 (store ?x32 (_ bv9 32) (_ bv31 32))))
 (let ((?x36 (store ?x34 (_ bv10 32) (_ bv31 32))))
 (let ((?x39 (store ?x36 (_ bv11 32) (_ bv28 32))))
 (let ((?x41 (store ?x39 (_ bv12 32) (_ bv31 32))))
 (let ((?x43 (store ?x41 (_ bv13 32) (_ bv30 32))))
 (let ((?x45 (store ?x43 (_ bv14 32) (_ bv31 32))))
 (let ((?x47 (store ?x45 (_ bv15 32) (_ bv30 32))))
 (let ((?x49 (store ?x47 (_ bv16 32) (_ bv31 32))))
 (let ((?x51 (store ?x49 (_ bv17 32) (_ bv31 32))))
 (let ((?x53 (store ?x51 (_ bv18 32) (_ bv30 32))))
 (let ((?x55 (store ?x53 (_ bv19 32) (_ bv31 32))))
 (let ((?x57 (store ?x55 (_ bv20 32) (_ bv30 32))))
 (let ((?x59 (store ?x57 (_ bv21 32) (_ bv31 32))))
 (let ((?x61 (store ?x59 (_ bv22 32) (_ bv31 32))))
 (let ((?x63 (store ?x61 (_ bv23 32) (_ bv28 32))))
 (let ((?x65 (store ?x63 (_ bv24 32) (_ bv31 32))))
 (let ((?x67 (store ?x65 (_ bv25 32) (_ bv30 32))))
 (let ((?x69 (store ?x67 (_ bv26 32) (_ bv31 32))))
 (let ((?x71 (store ?x69 (_ bv27 32) (_ bv30 32))))
 (let ((?x72 (store ?x71 (_ bv28 32) (_ bv31 32))))
 (let ((?x74 (store ?x72 (_ bv29 32) (_ bv31 32))))
 (let ((?x75 (store ?x74 (_ bv30 32) (_ bv30 32))))
 (let ((?x76 (store ?x75 (_ bv31 32) (_ bv31 32))))
 (let ((?x78 (store ?x76 (_ bv32 32) (_ bv30 32))))
 (let ((?x80 (store ?x78 (_ bv33 32) (_ bv31 32))))
 (let ((?x82 (store ?x80 (_ bv34 32) (_ bv31 32))))
 (let ((?x84 (store ?x82 (_ bv35 32) (_ bv28 32))))
 (let ((?x86 (store ?x84 (_ bv36 32) (_ bv31 32))))
 (let ((?x88 (store ?x86 (_ bv37 32) (_ bv30 32))))
 (let ((?x90 (store ?x88 (_ bv38 32) (_ bv31 32))))
 (let ((?x92 (store ?x90 (_ bv39 32) (_ bv30 32))))
 (let ((?x94 (store ?x92 (_ bv40 32) (_ bv31 32))))
 (let ((?x96 (store ?x94 (_ bv41 32) (_ bv31 32))))
 (let ((?x98 (store ?x96 (_ bv42 32) (_ bv30 32))))
 (let ((?x100 (store ?x98 (_ bv43 32) (_ bv31 32))))
 (let ((?x102 (store ?x100 (_ bv44 32) (_ bv30 32))))
 (let ((?x104 (store ?x102 (_ bv45 32) (_ bv31 32))))
 (let ((?x106 (store ?x104 (_ bv46 32) (_ bv31 32))))
 (let ((?x108 (store ?x106 (_ bv47 32) (_ bv29 32))))
 (let (($x95420 (or (= (_ bv22802 32) (bvadd y_months (_ bv24003 32))) (= (_ bv25202 32) (bvadd y_months (_ bv24003 32))))))
 (let ((?x20832 (ite $x95420 (_ bv28 32) (select ?x108 ?x16110))))
 (let (($x49295 (bvsle (_ bv0 32) y_beta)))
 (and $x49295 (bvslt y_beta ?x20832))))))))))))))))))))))))))))))))))))))))))))))))))))))))
(assert
 (and (= x_months (bvsub (bvadd (bvmul (_ bv2020 32) (_ bv12 32)) (_ bv2 32)) (_ bv24003 32))) (= (_ bv28 32) x_beta)))
(assert
 (let ((?x21790 (bvadd x_months (_ bv12 32))))
 (let ((?x89717 (bvsmod ?x21790 (_ bv48 32))))
 (let ((?x47633 (ite (bvsgt (_ bv22803 32) (bvadd ?x21790 (_ bv24003 32))) (_ bv1 32) (ite (bvsle (_ bv25203 32) (bvadd ?x21790 (_ bv24003 32))) (_ bv4294967295 32) (_ bv0 32)))))
 (let ((?x13 ((as const (Array (_ BitVec 32) (_ BitVec 32))) (_ bv0 32))))
 (let ((?x15 (store ?x13 (_ bv0 32) (_ bv31 32))))
 (let ((?x18 (store ?x15 (_ bv1 32) (_ bv30 32))))
 (let ((?x20 (store ?x18 (_ bv2 32) (_ bv31 32))))
 (let ((?x22 (store ?x20 (_ bv3 32) (_ bv30 32))))
 (let ((?x24 (store ?x22 (_ bv4 32) (_ bv31 32))))
 (let ((?x26 (store ?x24 (_ bv5 32) (_ bv31 32))))
 (let ((?x28 (store ?x26 (_ bv6 32) (_ bv30 32))))
 (let ((?x30 (store ?x28 (_ bv7 32) (_ bv31 32))))
 (let ((?x32 (store ?x30 (_ bv8 32) (_ bv30 32))))
 (let ((?x34 (store ?x32 (_ bv9 32) (_ bv31 32))))
 (let ((?x36 (store ?x34 (_ bv10 32) (_ bv31 32))))
 (let ((?x39 (store ?x36 (_ bv11 32) (_ bv28 32))))
 (let ((?x41 (store ?x39 (_ bv12 32) (_ bv31 32))))
 (let ((?x43 (store ?x41 (_ bv13 32) (_ bv30 32))))
 (let ((?x45 (store ?x43 (_ bv14 32) (_ bv31 32))))
 (let ((?x47 (store ?x45 (_ bv15 32) (_ bv30 32))))
 (let ((?x49 (store ?x47 (_ bv16 32) (_ bv31 32))))
 (let ((?x51 (store ?x49 (_ bv17 32) (_ bv31 32))))
 (let ((?x53 (store ?x51 (_ bv18 32) (_ bv30 32))))
 (let ((?x55 (store ?x53 (_ bv19 32) (_ bv31 32))))
 (let ((?x57 (store ?x55 (_ bv20 32) (_ bv30 32))))
 (let ((?x59 (store ?x57 (_ bv21 32) (_ bv31 32))))
 (let ((?x61 (store ?x59 (_ bv22 32) (_ bv31 32))))
 (let ((?x63 (store ?x61 (_ bv23 32) (_ bv28 32))))
 (let ((?x65 (store ?x63 (_ bv24 32) (_ bv31 32))))
 (let ((?x67 (store ?x65 (_ bv25 32) (_ bv30 32))))
 (let ((?x69 (store ?x67 (_ bv26 32) (_ bv31 32))))
 (let ((?x71 (store ?x69 (_ bv27 32) (_ bv30 32))))
 (let ((?x72 (store ?x71 (_ bv28 32) (_ bv31 32))))
 (let ((?x74 (store ?x72 (_ bv29 32) (_ bv31 32))))
 (let ((?x75 (store ?x74 (_ bv30 32) (_ bv30 32))))
 (let ((?x76 (store ?x75 (_ bv31 32) (_ bv31 32))))
 (let ((?x78 (store ?x76 (_ bv32 32) (_ bv30 32))))
 (let ((?x80 (store ?x78 (_ bv33 32) (_ bv31 32))))
 (let ((?x82 (store ?x80 (_ bv34 32) (_ bv31 32))))
 (let ((?x84 (store ?x82 (_ bv35 32) (_ bv28 32))))
 (let ((?x86 (store ?x84 (_ bv36 32) (_ bv31 32))))
 (let ((?x88 (store ?x86 (_ bv37 32) (_ bv30 32))))
 (let ((?x90 (store ?x88 (_ bv38 32) (_ bv31 32))))
 (let ((?x92 (store ?x90 (_ bv39 32) (_ bv30 32))))
 (let ((?x94 (store ?x92 (_ bv40 32) (_ bv31 32))))
 (let ((?x96 (store ?x94 (_ bv41 32) (_ bv31 32))))
 (let ((?x98 (store ?x96 (_ bv42 32) (_ bv30 32))))
 (let ((?x100 (store ?x98 (_ bv43 32) (_ bv31 32))))
 (let ((?x102 (store ?x100 (_ bv44 32) (_ bv30 32))))
 (let ((?x104 (store ?x102 (_ bv45 32) (_ bv31 32))))
 (let ((?x106 (store ?x104 (_ bv46 32) (_ bv31 32))))
 (let ((?x108 (store ?x106 (_ bv47 32) (_ bv29 32))))
 (let ((?x44694 (ite (or (= (_ bv22802 32) (bvadd ?x21790 (_ bv24003 32))) (= (_ bv25202 32) (bvadd ?x21790 (_ bv24003 32)))) (_ bv28 32) (select ?x108 ?x89717))))
 (let ((?x2818 (bvsub ?x44694 (_ bv1 32))))
 (let ((?x57282 (ite (bvsgt (_ bv0 32) x_beta) (_ bv0 32) (ite (bvsgt x_beta ?x2818) ?x2818 x_beta))))
 (let ((?x114 (store (store (store (store ?x13 (_ bv0 32) (_ bv0 32)) (_ bv1 32) (_ bv31 32)) (_ bv2 32) (_ bv61 32)) (_ bv3 32) (_ bv92 32))))
 (let ((?x122 (store (store (store (store ?x114 (_ bv4 32) (_ bv122 32)) (_ bv5 32) (_ bv153 32)) (_ bv6 32) (_ bv184 32)) (_ bv7 32) (_ bv214 32))))
 (let ((?x130 (store (store (store (store ?x122 (_ bv8 32) (_ bv245 32)) (_ bv9 32) (_ bv275 32)) (_ bv10 32) (_ bv306 32)) (_ bv11 32) (_ bv337 32))))
 (let ((?x138 (store (store (store (store ?x130 (_ bv12 32) (_ bv365 32)) (_ bv13 32) (_ bv396 32)) (_ bv14 32) (_ bv426 32)) (_ bv15 32) (_ bv457 32))))
 (let ((?x146 (store (store (store (store ?x138 (_ bv16 32) (_ bv487 32)) (_ bv17 32) (_ bv518 32)) (_ bv18 32) (_ bv549 32)) (_ bv19 32) (_ bv579 32))))
 (let ((?x154 (store (store (store (store ?x146 (_ bv20 32) (_ bv610 32)) (_ bv21 32) (_ bv640 32)) (_ bv22 32) (_ bv671 32)) (_ bv23 32) (_ bv702 32))))
 (let ((?x162 (store (store (store (store ?x154 (_ bv24 32) (_ bv730 32)) (_ bv25 32) (_ bv761 32)) (_ bv26 32) (_ bv791 32)) (_ bv27 32) (_ bv822 32))))
 (let ((?x170 (store (store (store (store ?x162 (_ bv28 32) (_ bv852 32)) (_ bv29 32) (_ bv883 32)) (_ bv30 32) (_ bv914 32)) (_ bv31 32) (_ bv944 32))))
 (let ((?x178 (store (store (store (store ?x170 (_ bv32 32) (_ bv975 32)) (_ bv33 32) (_ bv1005 32)) (_ bv34 32) (_ bv1036 32)) (_ bv35 32) (_ bv1067 32))))
 (let ((?x186 (store (store (store (store ?x178 (_ bv36 32) (_ bv1095 32)) (_ bv37 32) (_ bv1126 32)) (_ bv38 32) (_ bv1156 32)) (_ bv39 32) (_ bv1187 32))))
 (let ((?x194 (store (store (store (store ?x186 (_ bv40 32) (_ bv1217 32)) (_ bv41 32) (_ bv1248 32)) (_ bv42 32) (_ bv1279 32)) (_ bv43 32) (_ bv1309 32))))
 (let ((?x202 (store (store (store (store ?x194 (_ bv44 32) (_ bv1340 32)) (_ bv45 32) (_ bv1370 32)) (_ bv46 32) (_ bv1401 32)) (_ bv47 32) (_ bv1432 32))))
 (let ((?x39038 (bvadd (bvadd (bvadd (select ?x202 ?x89717) ?x57282) ?x47633) (_ bv0 32))))
 (let ((?x1172 (ite (bvuge ?x39038 (_ bv2147483648 32)) (bvsub ?x39038 (_ bv0 32)) ?x39038)))
 (let ((?x37068 (bvsdiv ?x1172 (_ bv1461 32))))
 (let ((?x50561 (ite (and (bvuge ?x1172 (_ bv2147483648 32)) (and (distinct (_ bv0 32) (bvsmod ?x1172 (_ bv1461 32))) true)) (bvsub ?x37068 (_ bv1 32)) ?x37068)))
 (let ((?x7463 (bvadd ?x21790 (bvmul ?x50561 (_ bv48 32)))))
 (let ((?x25203 (bvadd (bvadd ?x7463 (bvsub (_ bv1 32) ?x89717)) (_ bv24003 32))))
 (let ((?x26443 (bvadd (select ?x202 (_ bv1 32)) (ite (bvsgt (_ bv22803 32) ?x25203) (_ bv1 32) (ite (bvsle (_ bv25203 32) ?x25203) (_ bv4294967295 32) (_ bv0 32))))))
 (let ((?x81742 (bvsmod ?x39038 (_ bv1461 32))))
 (let ((?x469 (ite (bvsle (_ bv25203 32) (bvadd (bvadd ?x7463 (bvsub (_ bv2 32) ?x89717)) (_ bv24003 32))) (_ bv4294967295 32) (_ bv0 32))))
 (let ((?x43139 (ite (bvsgt (_ bv22803 32) (bvadd (bvadd ?x7463 (bvsub (_ bv2 32) ?x89717)) (_ bv24003 32))) (_ bv1 32) ?x469)))
 (let ((?x37931 (ite (bvsge ?x81742 (bvadd (select ?x202 (_ bv2 32)) ?x43139)) (_ bv2 32) (ite (bvsge ?x81742 ?x26443) (_ bv1 32) (_ bv0 32)))))
 (let ((?x459 (ite (bvsle (_ bv25203 32) (bvadd (bvadd ?x7463 (bvsub (_ bv3 32) ?x89717)) (_ bv24003 32))) (_ bv4294967295 32) (_ bv0 32))))
 (let ((?x24154 (ite (bvsgt (_ bv22803 32) (bvadd (bvadd ?x7463 (bvsub (_ bv3 32) ?x89717)) (_ bv24003 32))) (_ bv1 32) ?x459)))
 (let ((?x4252 (ite (bvsle (_ bv25203 32) (bvadd (bvadd ?x7463 (bvsub (_ bv4 32) ?x89717)) (_ bv24003 32))) (_ bv4294967295 32) (_ bv0 32))))
 (let ((?x3734 (ite (bvsgt (_ bv22803 32) (bvadd (bvadd ?x7463 (bvsub (_ bv4 32) ?x89717)) (_ bv24003 32))) (_ bv1 32) ?x4252)))
 (let ((?x83954 (ite (bvsge ?x81742 (bvadd (select ?x202 (_ bv4 32)) ?x3734)) (_ bv4 32) (ite (bvsge ?x81742 (bvadd (select ?x202 (_ bv3 32)) ?x24154)) (_ bv3 32) ?x37931))))
 (let ((?x61058 (ite (bvsle (_ bv25203 32) (bvadd (bvadd ?x7463 (bvsub (_ bv5 32) ?x89717)) (_ bv24003 32))) (_ bv4294967295 32) (_ bv0 32))))
 (let ((?x54637 (ite (bvsgt (_ bv22803 32) (bvadd (bvadd ?x7463 (bvsub (_ bv5 32) ?x89717)) (_ bv24003 32))) (_ bv1 32) ?x61058)))
 (let ((?x79648 (ite (bvsle (_ bv25203 32) (bvadd (bvadd ?x7463 (bvsub (_ bv6 32) ?x89717)) (_ bv24003 32))) (_ bv4294967295 32) (_ bv0 32))))
 (let ((?x84859 (ite (bvsgt (_ bv22803 32) (bvadd (bvadd ?x7463 (bvsub (_ bv6 32) ?x89717)) (_ bv24003 32))) (_ bv1 32) ?x79648)))
 (let ((?x42146 (ite (bvsge ?x81742 (bvadd (select ?x202 (_ bv6 32)) ?x84859)) (_ bv6 32) (ite (bvsge ?x81742 (bvadd (select ?x202 (_ bv5 32)) ?x54637)) (_ bv5 32) ?x83954))))
 (let ((?x20730 (ite (bvsle (_ bv25203 32) (bvadd (bvadd ?x7463 (bvsub (_ bv7 32) ?x89717)) (_ bv24003 32))) (_ bv4294967295 32) (_ bv0 32))))
 (let ((?x79507 (ite (bvsgt (_ bv22803 32) (bvadd (bvadd ?x7463 (bvsub (_ bv7 32) ?x89717)) (_ bv24003 32))) (_ bv1 32) ?x20730)))
 (let ((?x1402 (ite (bvsle (_ bv25203 32) (bvadd (bvadd ?x7463 (bvsub (_ bv8 32) ?x89717)) (_ bv24003 32))) (_ bv4294967295 32) (_ bv0 32))))
 (let ((?x43190 (ite (bvsgt (_ bv22803 32) (bvadd (bvadd ?x7463 (bvsub (_ bv8 32) ?x89717)) (_ bv24003 32))) (_ bv1 32) ?x1402)))
 (let ((?x17162 (ite (bvsge ?x81742 (bvadd (select ?x202 (_ bv8 32)) ?x43190)) (_ bv8 32) (ite (bvsge ?x81742 (bvadd (select ?x202 (_ bv7 32)) ?x79507)) (_ bv7 32) ?x42146))))
 (let ((?x773 (ite (bvsle (_ bv25203 32) (bvadd (bvadd ?x7463 (bvsub (_ bv9 32) ?x89717)) (_ bv24003 32))) (_ bv4294967295 32) (_ bv0 32))))
 (let ((?x8240 (ite (bvsgt (_ bv22803 32) (bvadd (bvadd ?x7463 (bvsub (_ bv9 32) ?x89717)) (_ bv24003 32))) (_ bv1 32) ?x773)))
 (let ((?x16424 (ite (bvsle (_ bv25203 32) (bvadd (bvadd ?x7463 (bvsub (_ bv10 32) ?x89717)) (_ bv24003 32))) (_ bv4294967295 32) (_ bv0 32))))
 (let ((?x15126 (ite (bvsgt (_ bv22803 32) (bvadd (bvadd ?x7463 (bvsub (_ bv10 32) ?x89717)) (_ bv24003 32))) (_ bv1 32) ?x16424)))
 (let ((?x45136 (ite (bvsge ?x81742 (bvadd (select ?x202 (_ bv10 32)) ?x15126)) (_ bv10 32) (ite (bvsge ?x81742 (bvadd (select ?x202 (_ bv9 32)) ?x8240)) (_ bv9 32) ?x17162))))
 (let ((?x2053 (ite (bvsle (_ bv25203 32) (bvadd (bvadd ?x7463 (bvsub (_ bv11 32) ?x89717)) (_ bv24003 32))) (_ bv4294967295 32) (_ bv0 32))))
 (let ((?x44912 (ite (bvsgt (_ bv22803 32) (bvadd (bvadd ?x7463 (bvsub (_ bv11 32) ?x89717)) (_ bv24003 32))) (_ bv1 32) ?x2053)))
 (let ((?x2508 (ite (bvsle (_ bv25203 32) (bvadd (bvadd ?x7463 (bvsub (_ bv12 32) ?x89717)) (_ bv24003 32))) (_ bv4294967295 32) (_ bv0 32))))
 (let ((?x7013 (ite (bvsgt (_ bv22803 32) (bvadd (bvadd ?x7463 (bvsub (_ bv12 32) ?x89717)) (_ bv24003 32))) (_ bv1 32) ?x2508)))
 (let ((?x73855 (ite (bvsge ?x81742 (bvadd (select ?x202 (_ bv12 32)) ?x7013)) (_ bv12 32) (ite (bvsge ?x81742 (bvadd (select ?x202 (_ bv11 32)) ?x44912)) (_ bv11 32) ?x45136))))
 (let ((?x14304 (ite (bvsle (_ bv25203 32) (bvadd (bvadd ?x7463 (bvsub (_ bv13 32) ?x89717)) (_ bv24003 32))) (_ bv4294967295 32) (_ bv0 32))))
 (let ((?x4673 (ite (bvsgt (_ bv22803 32) (bvadd (bvadd ?x7463 (bvsub (_ bv13 32) ?x89717)) (_ bv24003 32))) (_ bv1 32) ?x14304)))
 (let ((?x16330 (ite (bvsle (_ bv25203 32) (bvadd (bvadd ?x7463 (bvsub (_ bv14 32) ?x89717)) (_ bv24003 32))) (_ bv4294967295 32) (_ bv0 32))))
 (let ((?x28316 (ite (bvsgt (_ bv22803 32) (bvadd (bvadd ?x7463 (bvsub (_ bv14 32) ?x89717)) (_ bv24003 32))) (_ bv1 32) ?x16330)))
 (let ((?x32987 (ite (bvsge ?x81742 (bvadd (select ?x202 (_ bv14 32)) ?x28316)) (_ bv14 32) (ite (bvsge ?x81742 (bvadd (select ?x202 (_ bv13 32)) ?x4673)) (_ bv13 32) ?x73855))))
 (let ((?x915 (ite (bvsle (_ bv25203 32) (bvadd (bvadd ?x7463 (bvsub (_ bv15 32) ?x89717)) (_ bv24003 32))) (_ bv4294967295 32) (_ bv0 32))))
 (let ((?x8138 (ite (bvsgt (_ bv22803 32) (bvadd (bvadd ?x7463 (bvsub (_ bv15 32) ?x89717)) (_ bv24003 32))) (_ bv1 32) ?x915)))
 (let ((?x69525 (ite (bvsle (_ bv25203 32) (bvadd (bvadd ?x7463 (bvsub (_ bv16 32) ?x89717)) (_ bv24003 32))) (_ bv4294967295 32) (_ bv0 32))))
 (let ((?x80341 (ite (bvsgt (_ bv22803 32) (bvadd (bvadd ?x7463 (bvsub (_ bv16 32) ?x89717)) (_ bv24003 32))) (_ bv1 32) ?x69525)))
 (let ((?x12038 (ite (bvsge ?x81742 (bvadd (select ?x202 (_ bv16 32)) ?x80341)) (_ bv16 32) (ite (bvsge ?x81742 (bvadd (select ?x202 (_ bv15 32)) ?x8138)) (_ bv15 32) ?x32987))))
 (let ((?x93133 (ite (bvsle (_ bv25203 32) (bvadd (bvadd ?x7463 (bvsub (_ bv17 32) ?x89717)) (_ bv24003 32))) (_ bv4294967295 32) (_ bv0 32))))
 (let ((?x18442 (ite (bvsgt (_ bv22803 32) (bvadd (bvadd ?x7463 (bvsub (_ bv17 32) ?x89717)) (_ bv24003 32))) (_ bv1 32) ?x93133)))
 (let ((?x874 (ite (bvsle (_ bv25203 32) (bvadd (bvadd ?x7463 (bvsub (_ bv18 32) ?x89717)) (_ bv24003 32))) (_ bv4294967295 32) (_ bv0 32))))
 (let ((?x50514 (ite (bvsgt (_ bv22803 32) (bvadd (bvadd ?x7463 (bvsub (_ bv18 32) ?x89717)) (_ bv24003 32))) (_ bv1 32) ?x874)))
 (let ((?x1219 (ite (bvsge ?x81742 (bvadd (select ?x202 (_ bv18 32)) ?x50514)) (_ bv18 32) (ite (bvsge ?x81742 (bvadd (select ?x202 (_ bv17 32)) ?x18442)) (_ bv17 32) ?x12038))))
 (let ((?x56843 (ite (bvsle (_ bv25203 32) (bvadd (bvadd ?x7463 (bvsub (_ bv19 32) ?x89717)) (_ bv24003 32))) (_ bv4294967295 32) (_ bv0 32))))
 (let ((?x65200 (ite (bvsgt (_ bv22803 32) (bvadd (bvadd ?x7463 (bvsub (_ bv19 32) ?x89717)) (_ bv24003 32))) (_ bv1 32) ?x56843)))
 (let ((?x39058 (ite (bvsle (_ bv25203 32) (bvadd (bvadd ?x7463 (bvsub (_ bv20 32) ?x89717)) (_ bv24003 32))) (_ bv4294967295 32) (_ bv0 32))))
 (let ((?x24142 (ite (bvsgt (_ bv22803 32) (bvadd (bvadd ?x7463 (bvsub (_ bv20 32) ?x89717)) (_ bv24003 32))) (_ bv1 32) ?x39058)))
 (let ((?x24138 (ite (bvsge ?x81742 (bvadd (select ?x202 (_ bv20 32)) ?x24142)) (_ bv20 32) (ite (bvsge ?x81742 (bvadd (select ?x202 (_ bv19 32)) ?x65200)) (_ bv19 32) ?x1219))))
 (let ((?x6049 (ite (bvsle (_ bv25203 32) (bvadd (bvadd ?x7463 (bvsub (_ bv21 32) ?x89717)) (_ bv24003 32))) (_ bv4294967295 32) (_ bv0 32))))
 (let ((?x16815 (ite (bvsgt (_ bv22803 32) (bvadd (bvadd ?x7463 (bvsub (_ bv21 32) ?x89717)) (_ bv24003 32))) (_ bv1 32) ?x6049)))
 (let ((?x17523 (ite (bvsle (_ bv25203 32) (bvadd (bvadd ?x7463 (bvsub (_ bv22 32) ?x89717)) (_ bv24003 32))) (_ bv4294967295 32) (_ bv0 32))))
 (let ((?x17121 (ite (bvsgt (_ bv22803 32) (bvadd (bvadd ?x7463 (bvsub (_ bv22 32) ?x89717)) (_ bv24003 32))) (_ bv1 32) ?x17523)))
 (let ((?x1119 (ite (bvsge ?x81742 (bvadd (select ?x202 (_ bv22 32)) ?x17121)) (_ bv22 32) (ite (bvsge ?x81742 (bvadd (select ?x202 (_ bv21 32)) ?x16815)) (_ bv21 32) ?x24138))))
 (let ((?x51594 (ite (bvsle (_ bv25203 32) (bvadd (bvadd ?x7463 (bvsub (_ bv23 32) ?x89717)) (_ bv24003 32))) (_ bv4294967295 32) (_ bv0 32))))
 (let ((?x2647 (ite (bvsgt (_ bv22803 32) (bvadd (bvadd ?x7463 (bvsub (_ bv23 32) ?x89717)) (_ bv24003 32))) (_ bv1 32) ?x51594)))
 (let ((?x25829 (ite (bvsle (_ bv25203 32) (bvadd (bvadd ?x7463 (bvsub (_ bv24 32) ?x89717)) (_ bv24003 32))) (_ bv4294967295 32) (_ bv0 32))))
 (let ((?x42148 (ite (bvsgt (_ bv22803 32) (bvadd (bvadd ?x7463 (bvsub (_ bv24 32) ?x89717)) (_ bv24003 32))) (_ bv1 32) ?x25829)))
 (let ((?x89757 (ite (bvsge ?x81742 (bvadd (select ?x202 (_ bv24 32)) ?x42148)) (_ bv24 32) (ite (bvsge ?x81742 (bvadd (select ?x202 (_ bv23 32)) ?x2647)) (_ bv23 32) ?x1119))))
 (let ((?x100940 (ite (bvsle (_ bv25203 32) (bvadd (bvadd ?x7463 (bvsub (_ bv25 32) ?x89717)) (_ bv24003 32))) (_ bv4294967295 32) (_ bv0 32))))
 (let ((?x42817 (ite (bvsgt (_ bv22803 32) (bvadd (bvadd ?x7463 (bvsub (_ bv25 32) ?x89717)) (_ bv24003 32))) (_ bv1 32) ?x100940)))
 (let ((?x40027 (ite (bvsle (_ bv25203 32) (bvadd (bvadd ?x7463 (bvsub (_ bv26 32) ?x89717)) (_ bv24003 32))) (_ bv4294967295 32) (_ bv0 32))))
 (let ((?x76429 (ite (bvsgt (_ bv22803 32) (bvadd (bvadd ?x7463 (bvsub (_ bv26 32) ?x89717)) (_ bv24003 32))) (_ bv1 32) ?x40027)))
 (let ((?x8048 (ite (bvsge ?x81742 (bvadd (select ?x202 (_ bv26 32)) ?x76429)) (_ bv26 32) (ite (bvsge ?x81742 (bvadd (select ?x202 (_ bv25 32)) ?x42817)) (_ bv25 32) ?x89757))))
 (let ((?x83962 (ite (bvsle (_ bv25203 32) (bvadd (bvadd ?x7463 (bvsub (_ bv27 32) ?x89717)) (_ bv24003 32))) (_ bv4294967295 32) (_ bv0 32))))
 (let ((?x24099 (ite (bvsgt (_ bv22803 32) (bvadd (bvadd ?x7463 (bvsub (_ bv27 32) ?x89717)) (_ bv24003 32))) (_ bv1 32) ?x83962)))
 (let ((?x25757 (ite (bvsle (_ bv25203 32) (bvadd (bvadd ?x7463 (bvsub (_ bv28 32) ?x89717)) (_ bv24003 32))) (_ bv4294967295 32) (_ bv0 32))))
 (let ((?x8686 (ite (bvsgt (_ bv22803 32) (bvadd (bvadd ?x7463 (bvsub (_ bv28 32) ?x89717)) (_ bv24003 32))) (_ bv1 32) ?x25757)))
 (let ((?x58541 (ite (bvsge ?x81742 (bvadd (select ?x202 (_ bv28 32)) ?x8686)) (_ bv28 32) (ite (bvsge ?x81742 (bvadd (select ?x202 (_ bv27 32)) ?x24099)) (_ bv27 32) ?x8048))))
 (let ((?x1122 (ite (bvsle (_ bv25203 32) (bvadd (bvadd ?x7463 (bvsub (_ bv29 32) ?x89717)) (_ bv24003 32))) (_ bv4294967295 32) (_ bv0 32))))
 (let ((?x1147 (ite (bvsgt (_ bv22803 32) (bvadd (bvadd ?x7463 (bvsub (_ bv29 32) ?x89717)) (_ bv24003 32))) (_ bv1 32) ?x1122)))
 (let ((?x6762 (ite (bvsle (_ bv25203 32) (bvadd (bvadd ?x7463 (bvsub (_ bv30 32) ?x89717)) (_ bv24003 32))) (_ bv4294967295 32) (_ bv0 32))))
 (let ((?x2697 (ite (bvsgt (_ bv22803 32) (bvadd (bvadd ?x7463 (bvsub (_ bv30 32) ?x89717)) (_ bv24003 32))) (_ bv1 32) ?x6762)))
 (let ((?x71006 (ite (bvsge ?x81742 (bvadd (select ?x202 (_ bv30 32)) ?x2697)) (_ bv30 32) (ite (bvsge ?x81742 (bvadd (select ?x202 (_ bv29 32)) ?x1147)) (_ bv29 32) ?x58541))))
 (let ((?x1983 (ite (bvsle (_ bv25203 32) (bvadd (bvadd ?x7463 (bvsub (_ bv31 32) ?x89717)) (_ bv24003 32))) (_ bv4294967295 32) (_ bv0 32))))
 (let ((?x14603 (ite (bvsgt (_ bv22803 32) (bvadd (bvadd ?x7463 (bvsub (_ bv31 32) ?x89717)) (_ bv24003 32))) (_ bv1 32) ?x1983)))
 (let ((?x55227 (ite (bvsle (_ bv25203 32) (bvadd (bvadd ?x7463 (bvsub (_ bv32 32) ?x89717)) (_ bv24003 32))) (_ bv4294967295 32) (_ bv0 32))))
 (let ((?x48402 (ite (bvsgt (_ bv22803 32) (bvadd (bvadd ?x7463 (bvsub (_ bv32 32) ?x89717)) (_ bv24003 32))) (_ bv1 32) ?x55227)))
 (let ((?x56538 (ite (bvsge ?x81742 (bvadd (select ?x202 (_ bv32 32)) ?x48402)) (_ bv32 32) (ite (bvsge ?x81742 (bvadd (select ?x202 (_ bv31 32)) ?x14603)) (_ bv31 32) ?x71006))))
 (let ((?x478 (ite (bvsle (_ bv25203 32) (bvadd (bvadd ?x7463 (bvsub (_ bv33 32) ?x89717)) (_ bv24003 32))) (_ bv4294967295 32) (_ bv0 32))))
 (let ((?x3930 (ite (bvsgt (_ bv22803 32) (bvadd (bvadd ?x7463 (bvsub (_ bv33 32) ?x89717)) (_ bv24003 32))) (_ bv1 32) ?x478)))
 (let ((?x54842 (ite (bvsle (_ bv25203 32) (bvadd (bvadd ?x7463 (bvsub (_ bv34 32) ?x89717)) (_ bv24003 32))) (_ bv4294967295 32) (_ bv0 32))))
 (let ((?x39133 (ite (bvsgt (_ bv22803 32) (bvadd (bvadd ?x7463 (bvsub (_ bv34 32) ?x89717)) (_ bv24003 32))) (_ bv1 32) ?x54842)))
 (let ((?x26032 (ite (bvsge ?x81742 (bvadd (select ?x202 (_ bv34 32)) ?x39133)) (_ bv34 32) (ite (bvsge ?x81742 (bvadd (select ?x202 (_ bv33 32)) ?x3930)) (_ bv33 32) ?x56538))))
 (let ((?x23409 (ite (bvsle (_ bv25203 32) (bvadd (bvadd ?x7463 (bvsub (_ bv35 32) ?x89717)) (_ bv24003 32))) (_ bv4294967295 32) (_ bv0 32))))
 (let ((?x7298 (ite (bvsgt (_ bv22803 32) (bvadd (bvadd ?x7463 (bvsub (_ bv35 32) ?x89717)) (_ bv24003 32))) (_ bv1 32) ?x23409)))
 (let ((?x86455 (ite (bvsle (_ bv25203 32) (bvadd (bvadd ?x7463 (bvsub (_ bv36 32) ?x89717)) (_ bv24003 32))) (_ bv4294967295 32) (_ bv0 32))))
 (let ((?x27553 (ite (bvsgt (_ bv22803 32) (bvadd (bvadd ?x7463 (bvsub (_ bv36 32) ?x89717)) (_ bv24003 32))) (_ bv1 32) ?x86455)))
 (let ((?x95529 (ite (bvsge ?x81742 (bvadd (select ?x202 (_ bv36 32)) ?x27553)) (_ bv36 32) (ite (bvsge ?x81742 (bvadd (select ?x202 (_ bv35 32)) ?x7298)) (_ bv35 32) ?x26032))))
 (let ((?x759 (ite (bvsle (_ bv25203 32) (bvadd (bvadd ?x7463 (bvsub (_ bv37 32) ?x89717)) (_ bv24003 32))) (_ bv4294967295 32) (_ bv0 32))))
 (let ((?x30692 (ite (bvsgt (_ bv22803 32) (bvadd (bvadd ?x7463 (bvsub (_ bv37 32) ?x89717)) (_ bv24003 32))) (_ bv1 32) ?x759)))
 (let ((?x501 (ite (bvsle (_ bv25203 32) (bvadd (bvadd ?x7463 (bvsub (_ bv38 32) ?x89717)) (_ bv24003 32))) (_ bv4294967295 32) (_ bv0 32))))
 (let ((?x5238 (ite (bvsgt (_ bv22803 32) (bvadd (bvadd ?x7463 (bvsub (_ bv38 32) ?x89717)) (_ bv24003 32))) (_ bv1 32) ?x501)))
 (let ((?x25822 (ite (bvsge ?x81742 (bvadd (select ?x202 (_ bv38 32)) ?x5238)) (_ bv38 32) (ite (bvsge ?x81742 (bvadd (select ?x202 (_ bv37 32)) ?x30692)) (_ bv37 32) ?x95529))))
 (let ((?x6675 (ite (bvsle (_ bv25203 32) (bvadd (bvadd ?x7463 (bvsub (_ bv39 32) ?x89717)) (_ bv24003 32))) (_ bv4294967295 32) (_ bv0 32))))
 (let ((?x67268 (ite (bvsgt (_ bv22803 32) (bvadd (bvadd ?x7463 (bvsub (_ bv39 32) ?x89717)) (_ bv24003 32))) (_ bv1 32) ?x6675)))
 (let ((?x2480 (ite (bvsle (_ bv25203 32) (bvadd (bvadd ?x7463 (bvsub (_ bv40 32) ?x89717)) (_ bv24003 32))) (_ bv4294967295 32) (_ bv0 32))))
 (let ((?x11870 (ite (bvsgt (_ bv22803 32) (bvadd (bvadd ?x7463 (bvsub (_ bv40 32) ?x89717)) (_ bv24003 32))) (_ bv1 32) ?x2480)))
 (let ((?x2496 (ite (bvsge ?x81742 (bvadd (select ?x202 (_ bv40 32)) ?x11870)) (_ bv40 32) (ite (bvsge ?x81742 (bvadd (select ?x202 (_ bv39 32)) ?x67268)) (_ bv39 32) ?x25822))))
 (let ((?x76538 (ite (bvsle (_ bv25203 32) (bvadd (bvadd ?x7463 (bvsub (_ bv41 32) ?x89717)) (_ bv24003 32))) (_ bv4294967295 32) (_ bv0 32))))
 (let ((?x5851 (ite (bvsgt (_ bv22803 32) (bvadd (bvadd ?x7463 (bvsub (_ bv41 32) ?x89717)) (_ bv24003 32))) (_ bv1 32) ?x76538)))
 (let ((?x8761 (ite (bvsle (_ bv25203 32) (bvadd (bvadd ?x7463 (bvsub (_ bv42 32) ?x89717)) (_ bv24003 32))) (_ bv4294967295 32) (_ bv0 32))))
 (let ((?x4982 (ite (bvsgt (_ bv22803 32) (bvadd (bvadd ?x7463 (bvsub (_ bv42 32) ?x89717)) (_ bv24003 32))) (_ bv1 32) ?x8761)))
 (let ((?x78046 (ite (bvsge ?x81742 (bvadd (select ?x202 (_ bv42 32)) ?x4982)) (_ bv42 32) (ite (bvsge ?x81742 (bvadd (select ?x202 (_ bv41 32)) ?x5851)) (_ bv41 32) ?x2496))))
 (let ((?x73329 (ite (bvsle (_ bv25203 32) (bvadd (bvadd ?x7463 (bvsub (_ bv43 32) ?x89717)) (_ bv24003 32))) (_ bv4294967295 32) (_ bv0 32))))
 (let ((?x7104 (ite (bvsgt (_ bv22803 32) (bvadd (bvadd ?x7463 (bvsub (_ bv43 32) ?x89717)) (_ bv24003 32))) (_ bv1 32) ?x73329)))
 (let ((?x69518 (ite (bvsle (_ bv25203 32) (bvadd (bvadd ?x7463 (bvsub (_ bv44 32) ?x89717)) (_ bv24003 32))) (_ bv4294967295 32) (_ bv0 32))))
 (let ((?x80068 (ite (bvsgt (_ bv22803 32) (bvadd (bvadd ?x7463 (bvsub (_ bv44 32) ?x89717)) (_ bv24003 32))) (_ bv1 32) ?x69518)))
 (let ((?x10783 (ite (bvsge ?x81742 (bvadd (select ?x202 (_ bv44 32)) ?x80068)) (_ bv44 32) (ite (bvsge ?x81742 (bvadd (select ?x202 (_ bv43 32)) ?x7104)) (_ bv43 32) ?x78046))))
 (let ((?x23672 (ite (bvsle (_ bv25203 32) (bvadd (bvadd ?x7463 (bvsub (_ bv45 32) ?x89717)) (_ bv24003 32))) (_ bv4294967295 32) (_ bv0 32))))
 (let ((?x2494 (ite (bvsgt (_ bv22803 32) (bvadd (bvadd ?x7463 (bvsub (_ bv45 32) ?x89717)) (_ bv24003 32))) (_ bv1 32) ?x23672)))
 (let ((?x30661 (ite (bvsle (_ bv25203 32) (bvadd (bvadd ?x7463 (bvsub (_ bv46 32) ?x89717)) (_ bv24003 32))) (_ bv4294967295 32) (_ bv0 32))))
 (let ((?x20221 (ite (bvsgt (_ bv22803 32) (bvadd (bvadd ?x7463 (bvsub (_ bv46 32) ?x89717)) (_ bv24003 32))) (_ bv1 32) ?x30661)))
 (let ((?x3549 (ite (bvsge ?x81742 (bvadd (select ?x202 (_ bv46 32)) ?x20221)) (_ bv46 32) (ite (bvsge ?x81742 (bvadd (select ?x202 (_ bv45 32)) ?x2494)) (_ bv45 32) ?x10783))))
 (let ((?x76546 (ite (bvsle (_ bv25203 32) (bvadd (bvadd ?x7463 (bvsub (_ bv47 32) ?x89717)) (_ bv24003 32))) (_ bv4294967295 32) (_ bv0 32))))
 (let ((?x55566 (ite (bvsgt (_ bv22803 32) (bvadd (bvadd ?x7463 (bvsub (_ bv47 32) ?x89717)) (_ bv24003 32))) (_ bv1 32) ?x76546)))
 (let ((?x1152 (ite (bvsge ?x81742 (bvadd (select ?x202 (_ bv47 32)) ?x55566)) (_ bv47 32) ?x3549)))
 (let ((?x60380 (bvadd ?x7463 (bvsub ?x1152 ?x89717))))
 (let ((?x24791 (bvadd ?x60380 (_ bv24003 32))))
 (let ((?x57172 (bvadd (select ?x202 ?x1152) (ite (bvsgt (_ bv22803 32) ?x24791) (_ bv1 32) (ite (bvsle (_ bv25203 32) ?x24791) (_ bv4294967295 32) (_ bv0 32))))))
 (let ((?x79289 (bvsub ?x81742 ?x57172)))
 (let ((?x13602 (ite (or (= (_ bv22802 32) ?x24791) (= (_ bv25202 32) ?x24791)) (_ bv28 32) (select ?x108 ?x1152))))
 (let ((?x32494 (ite (= (_ bv1 32) (ite (bvsge ?x79289 ?x13602) (_ bv1 32) (_ bv0 32))) (bvsub ?x79289 ?x13602) ?x79289)))
 (and (= y_months (bvadd ?x60380 (ite (bvsge ?x79289 ?x13602) (_ bv1 32) (_ bv0 32)))) (= y_beta ?x32494))))))))))))))))))))))))))))))))))))))))))))))))))))))))))))))))))))))))))))))))))))))))))))))))))))))))))))))))))))))))))))))))))))))))))))))))))))))))))))))))))))))))))))))))))))))))))))))))))))))))
(assert
 (let (($x6925 (and (= y_months (bvsub (bvadd (bvmul (_ bv2021 32) (_ bv12 32)) (_ bv2 32)) (_ bv24003 32))) (= (_ bv27 32) y_beta))))
(not $x6925)))
(check-sat)
